(set-logic QF_BV)

(declare-const __ESBMC_ptr_obj_start_0 (_ BitVec 64))

(declare-const __ESBMC_ptr_obj_end_0 (_ BitVec 64))

(declare-const __ESBMC_ptr_obj_start_1 (_ BitVec 64))

(declare-const __ESBMC_ptr_obj_end_1 (_ BitVec 64))

(declare-const |smt_conv::__ESBMC_ptr_addr_range_0..start0| (_ BitVec 64))

(declare-const |smt_conv::__ESBMC_ptr_addr_range_0..end0| (_ BitVec 64))

(declare-const |smt_conv::__ESBMC_ptr_addr_range_1..start0| (_ BitVec 64))

(declare-const |smt_conv::__ESBMC_ptr_addr_range_1..end0| (_ BitVec 64))

(declare-const |smt_conv::smt_conv::collate_array_vals::3..start0| (_ BitVec 64))

(declare-const |smt_conv::smt_conv::collate_array_vals::3..end0| (_ BitVec 64))

(declare-const |smt_conv::smt_conv::collate_array_vals::4..start0| (_ BitVec 64))

(declare-const |smt_conv::smt_conv::collate_array_vals::4..end0| (_ BitVec 64))

(declare-const |smt_conv::smt_conv::collate_array_vals::7..start0| (_ BitVec 64))

(declare-const |smt_conv::smt_conv::collate_array_vals::7..end0| (_ BitVec 64))

(declare-const |c:@F@main::$tmp::return_value$___VERIFIER_nondet_int$1?1!0&0#1| (_ BitVec 32))

(declare-const |nondet$symex::nondet18| (_ BitVec 32))

(declare-const |c:ChawdharyCookGulwaniSagivYang-ESOP2008-easy1.c@269@F@main@z?1!0&0#1| (_ BitVec 32))

(declare-const |goto_symex::guard?0!0&0#1| (_ BitVec 1))

(declare-const |c:ChawdharyCookGulwaniSagivYang-ESOP2008-easy1.c@248@F@main@x?1!0&0#5| (_ BitVec 32))

(declare-const |goto_symex::guard?0!0&0#2| (_ BitVec 1))

(declare-const |goto_symex::guard?0!0&0#3| (_ BitVec 1))

(declare-const |c:ChawdharyCookGulwaniSagivYang-ESOP2008-easy1.c@248@F@main@x?1!0&0#6| (_ BitVec 32))

(declare-const |c:ChawdharyCookGulwaniSagivYang-ESOP2008-easy1.c@248@F@main@x?1!0&0#7| (_ BitVec 32))

(declare-const |c:ChawdharyCookGulwaniSagivYang-ESOP2008-easy1.c@248@F@main@x?1!0&0#8| (_ BitVec 32))

(declare-const |c:ChawdharyCookGulwaniSagivYang-ESOP2008-easy1.c@248@F@main@x?1!0&0#9| (_ BitVec 32))

(declare-const |goto_symex::guard?0!0&0#4| (_ BitVec 1))

(declare-const |goto_symex::guard?0!0&0#5| (_ BitVec 1))

(declare-const |c:ChawdharyCookGulwaniSagivYang-ESOP2008-easy1.c@248@F@main@x?1!0&0#10| (_ BitVec 32))

(declare-const |c:ChawdharyCookGulwaniSagivYang-ESOP2008-easy1.c@248@F@main@x?1!0&0#11| (_ BitVec 32))

(declare-const |c:ChawdharyCookGulwaniSagivYang-ESOP2008-easy1.c@248@F@main@x?1!0&0#12| (_ BitVec 32))

(declare-const |c:ChawdharyCookGulwaniSagivYang-ESOP2008-easy1.c@248@F@main@x?1!0&0#13| (_ BitVec 32))

(declare-const |goto_symex::guard?0!0&0#6| (_ BitVec 1))

(declare-const |goto_symex::guard?0!0&0#7| (_ BitVec 1))

(declare-const |c:ChawdharyCookGulwaniSagivYang-ESOP2008-easy1.c@248@F@main@x?1!0&0#14| (_ BitVec 32))

(declare-const |c:ChawdharyCookGulwaniSagivYang-ESOP2008-easy1.c@248@F@main@x?1!0&0#15| (_ BitVec 32))

(declare-const |c:ChawdharyCookGulwaniSagivYang-ESOP2008-easy1.c@248@F@main@x?1!0&0#16| (_ BitVec 32))

(declare-const |c:ChawdharyCookGulwaniSagivYang-ESOP2008-easy1.c@248@F@main@x?1!0&0#17| (_ BitVec 32))

(declare-const |goto_symex::guard?0!0&0#8| (_ BitVec 1))

(declare-const |goto_symex::guard?0!0&0#9| (_ BitVec 1))

(declare-const |c:ChawdharyCookGulwaniSagivYang-ESOP2008-easy1.c@248@F@main@x?1!0&0#18| (_ BitVec 32))

(declare-const |c:ChawdharyCookGulwaniSagivYang-ESOP2008-easy1.c@248@F@main@x?1!0&0#19| (_ BitVec 32))

(declare-const |c:ChawdharyCookGulwaniSagivYang-ESOP2008-easy1.c@248@F@main@x?1!0&0#20| (_ BitVec 32))

(declare-const |c:ChawdharyCookGulwaniSagivYang-ESOP2008-easy1.c@248@F@main@x?1!0&0#21| (_ BitVec 32))

(declare-const |goto_symex::guard?0!0&0#10| (_ BitVec 1))

(declare-const |goto_symex::guard?0!0&0#11| (_ BitVec 1))

(declare-const |c:ChawdharyCookGulwaniSagivYang-ESOP2008-easy1.c@248@F@main@x?1!0&0#22| (_ BitVec 32))

(declare-const |c:ChawdharyCookGulwaniSagivYang-ESOP2008-easy1.c@248@F@main@x?1!0&0#23| (_ BitVec 32))

(declare-const |c:ChawdharyCookGulwaniSagivYang-ESOP2008-easy1.c@248@F@main@x?1!0&0#24| (_ BitVec 32))

(declare-const |c:ChawdharyCookGulwaniSagivYang-ESOP2008-easy1.c@248@F@main@x?1!0&0#25| (_ BitVec 32))

(declare-const |goto_symex::guard?0!0&0#12| (_ BitVec 1))

(declare-const |goto_symex::guard?0!0&0#13| (_ BitVec 1))

(declare-const |c:ChawdharyCookGulwaniSagivYang-ESOP2008-easy1.c@248@F@main@x?1!0&0#26| (_ BitVec 32))

(declare-const |c:ChawdharyCookGulwaniSagivYang-ESOP2008-easy1.c@248@F@main@x?1!0&0#27| (_ BitVec 32))

(declare-const |c:ChawdharyCookGulwaniSagivYang-ESOP2008-easy1.c@248@F@main@x?1!0&0#28| (_ BitVec 32))

(declare-const |c:ChawdharyCookGulwaniSagivYang-ESOP2008-easy1.c@248@F@main@x?1!0&0#29| (_ BitVec 32))

(declare-const |goto_symex::guard?0!0&0#14| (_ BitVec 1))

(declare-const |goto_symex::guard?0!0&0#15| (_ BitVec 1))

(declare-const |c:ChawdharyCookGulwaniSagivYang-ESOP2008-easy1.c@248@F@main@x?1!0&0#30| (_ BitVec 32))

(declare-const |c:ChawdharyCookGulwaniSagivYang-ESOP2008-easy1.c@248@F@main@x?1!0&0#31| (_ BitVec 32))

(declare-const |c:ChawdharyCookGulwaniSagivYang-ESOP2008-easy1.c@248@F@main@x?1!0&0#32| (_ BitVec 32))

(declare-const |c:ChawdharyCookGulwaniSagivYang-ESOP2008-easy1.c@248@F@main@x?1!0&0#33| (_ BitVec 32))

(declare-const |goto_symex::guard?0!0&0#16| (_ BitVec 1))

(declare-const |goto_symex::guard?0!0&0#17| (_ BitVec 1))

(declare-const |c:ChawdharyCookGulwaniSagivYang-ESOP2008-easy1.c@248@F@main@x?1!0&0#34| (_ BitVec 32))

(declare-const |c:ChawdharyCookGulwaniSagivYang-ESOP2008-easy1.c@248@F@main@x?1!0&0#35| (_ BitVec 32))

(declare-const |c:ChawdharyCookGulwaniSagivYang-ESOP2008-easy1.c@248@F@main@x?1!0&0#36| (_ BitVec 32))

(declare-const |c:ChawdharyCookGulwaniSagivYang-ESOP2008-easy1.c@248@F@main@x?1!0&0#37| (_ BitVec 32))

(declare-const |goto_symex::guard?0!0&0#18| (_ BitVec 1))

(declare-const |goto_symex::guard?0!0&0#19| (_ BitVec 1))

(declare-const |c:ChawdharyCookGulwaniSagivYang-ESOP2008-easy1.c@248@F@main@x?1!0&0#38| (_ BitVec 32))

(declare-const |c:ChawdharyCookGulwaniSagivYang-ESOP2008-easy1.c@248@F@main@x?1!0&0#39| (_ BitVec 32))

(declare-const |c:ChawdharyCookGulwaniSagivYang-ESOP2008-easy1.c@248@F@main@x?1!0&0#40| (_ BitVec 32))

(declare-const |c:ChawdharyCookGulwaniSagivYang-ESOP2008-easy1.c@248@F@main@x?1!0&0#41| (_ BitVec 32))

(declare-const |goto_symex::guard?0!0&0#20| (_ BitVec 1))

(declare-const |goto_symex::guard?0!0&0#21| (_ BitVec 1))

(declare-const |c:ChawdharyCookGulwaniSagivYang-ESOP2008-easy1.c@248@F@main@x?1!0&0#42| (_ BitVec 32))

(declare-const |c:ChawdharyCookGulwaniSagivYang-ESOP2008-easy1.c@248@F@main@x?1!0&0#43| (_ BitVec 32))

(declare-const |c:ChawdharyCookGulwaniSagivYang-ESOP2008-easy1.c@248@F@main@x?1!0&0#44| (_ BitVec 32))

(declare-const |c:ChawdharyCookGulwaniSagivYang-ESOP2008-easy1.c@248@F@main@x?1!0&0#45| (_ BitVec 32))

(declare-const |goto_symex::guard?0!0&0#22| (_ BitVec 1))

(declare-const |goto_symex::guard?0!0&0#23| (_ BitVec 1))

(declare-const |c:ChawdharyCookGulwaniSagivYang-ESOP2008-easy1.c@248@F@main@x?1!0&0#46| (_ BitVec 32))

(declare-const |c:ChawdharyCookGulwaniSagivYang-ESOP2008-easy1.c@248@F@main@x?1!0&0#47| (_ BitVec 32))

(declare-const |c:ChawdharyCookGulwaniSagivYang-ESOP2008-easy1.c@248@F@main@x?1!0&0#48| (_ BitVec 32))

(declare-const |c:ChawdharyCookGulwaniSagivYang-ESOP2008-easy1.c@248@F@main@x?1!0&0#49| (_ BitVec 32))

(declare-const |goto_symex::guard?0!0&0#24| (_ BitVec 1))

(declare-const |goto_symex::guard?0!0&0#25| (_ BitVec 1))

(declare-const |c:ChawdharyCookGulwaniSagivYang-ESOP2008-easy1.c@248@F@main@x?1!0&0#50| (_ BitVec 32))

(declare-const |c:ChawdharyCookGulwaniSagivYang-ESOP2008-easy1.c@248@F@main@x?1!0&0#51| (_ BitVec 32))

(declare-const |c:ChawdharyCookGulwaniSagivYang-ESOP2008-easy1.c@248@F@main@x?1!0&0#52| (_ BitVec 32))

(declare-const |c:ChawdharyCookGulwaniSagivYang-ESOP2008-easy1.c@248@F@main@x?1!0&0#53| (_ BitVec 32))

(declare-const |goto_symex::guard?0!0&0#26| (_ BitVec 1))

(declare-const |goto_symex::guard?0!0&0#27| (_ BitVec 1))

(declare-const |c:ChawdharyCookGulwaniSagivYang-ESOP2008-easy1.c@248@F@main@x?1!0&0#54| (_ BitVec 32))

(declare-const |c:ChawdharyCookGulwaniSagivYang-ESOP2008-easy1.c@248@F@main@x?1!0&0#55| (_ BitVec 32))

(declare-const |c:ChawdharyCookGulwaniSagivYang-ESOP2008-easy1.c@248@F@main@x?1!0&0#56| (_ BitVec 32))

(declare-const |c:ChawdharyCookGulwaniSagivYang-ESOP2008-easy1.c@248@F@main@x?1!0&0#57| (_ BitVec 32))

(declare-const |goto_symex::guard?0!0&0#28| (_ BitVec 1))

(declare-const |goto_symex::guard?0!0&0#29| (_ BitVec 1))

(declare-const |c:ChawdharyCookGulwaniSagivYang-ESOP2008-easy1.c@248@F@main@x?1!0&0#58| (_ BitVec 32))

(declare-const |c:ChawdharyCookGulwaniSagivYang-ESOP2008-easy1.c@248@F@main@x?1!0&0#59| (_ BitVec 32))

(declare-const |c:ChawdharyCookGulwaniSagivYang-ESOP2008-easy1.c@248@F@main@x?1!0&0#60| (_ BitVec 32))

(declare-const |c:ChawdharyCookGulwaniSagivYang-ESOP2008-easy1.c@248@F@main@x?1!0&0#61| (_ BitVec 32))

(declare-const |goto_symex::guard?0!0&0#30| (_ BitVec 1))

(declare-const |goto_symex::guard?0!0&0#31| (_ BitVec 1))

(declare-const |c:ChawdharyCookGulwaniSagivYang-ESOP2008-easy1.c@248@F@main@x?1!0&0#62| (_ BitVec 32))

(declare-const |c:ChawdharyCookGulwaniSagivYang-ESOP2008-easy1.c@248@F@main@x?1!0&0#63| (_ BitVec 32))

(declare-const |c:ChawdharyCookGulwaniSagivYang-ESOP2008-easy1.c@248@F@main@x?1!0&0#64| (_ BitVec 32))

(declare-const |c:ChawdharyCookGulwaniSagivYang-ESOP2008-easy1.c@248@F@main@x?1!0&0#65| (_ BitVec 32))

(declare-const |goto_symex::guard?0!0&0#32| (_ BitVec 1))

(declare-const |goto_symex::guard?0!0&0#33| (_ BitVec 1))

(declare-const |c:ChawdharyCookGulwaniSagivYang-ESOP2008-easy1.c@248@F@main@x?1!0&0#66| (_ BitVec 32))

(declare-const |c:ChawdharyCookGulwaniSagivYang-ESOP2008-easy1.c@248@F@main@x?1!0&0#67| (_ BitVec 32))

(declare-const |c:ChawdharyCookGulwaniSagivYang-ESOP2008-easy1.c@248@F@main@x?1!0&0#68| (_ BitVec 32))

(declare-const |c:ChawdharyCookGulwaniSagivYang-ESOP2008-easy1.c@248@F@main@x?1!0&0#69| (_ BitVec 32))

(declare-const |goto_symex::guard?0!0&0#34| (_ BitVec 1))

(declare-const |goto_symex::guard?0!0&0#35| (_ BitVec 1))

(declare-const |c:ChawdharyCookGulwaniSagivYang-ESOP2008-easy1.c@248@F@main@x?1!0&0#70| (_ BitVec 32))

(declare-const |c:ChawdharyCookGulwaniSagivYang-ESOP2008-easy1.c@248@F@main@x?1!0&0#71| (_ BitVec 32))

(declare-const |c:ChawdharyCookGulwaniSagivYang-ESOP2008-easy1.c@248@F@main@x?1!0&0#72| (_ BitVec 32))

(declare-const |c:ChawdharyCookGulwaniSagivYang-ESOP2008-easy1.c@248@F@main@x?1!0&0#73| (_ BitVec 32))

(declare-const |goto_symex::guard?0!0&0#36| (_ BitVec 1))

(declare-const |execution_statet::guard_exec?0!0| (_ BitVec 1))

(define-fun $e1 () Bool 

 (= #b00000000000000000000000000000000 |c:ChawdharyCookGulwaniSagivYang-ESOP2008-easy1.c@269@F@main@z?1!0&0#1|))

(assert 

 (= __ESBMC_ptr_obj_start_0 #b0000000000000000000000000000000000000000000000000000000000000000))

(assert 

 (= #b0000000000000000000000000000000000000000000000000000000000000000 __ESBMC_ptr_obj_end_0))

(assert 

 (= __ESBMC_ptr_obj_start_1 #b0000000000000000000000000000000000000000000000000000000000000001))

(assert 

 (= #b1111111111111111111111111111111111111111111111111111111111111111 __ESBMC_ptr_obj_end_1))

(assert 

 (= __ESBMC_ptr_obj_end_0 |smt_conv::__ESBMC_ptr_addr_range_0..end0|))

(assert 

 (= __ESBMC_ptr_obj_start_0 |smt_conv::__ESBMC_ptr_addr_range_0..start0|))

(assert 

 (= __ESBMC_ptr_obj_end_1 |smt_conv::__ESBMC_ptr_addr_range_1..end0|))

(assert 

 (= __ESBMC_ptr_obj_start_1 |smt_conv::__ESBMC_ptr_addr_range_1..start0|))

(assert 

 (= |smt_conv::smt_conv::collate_array_vals::3..end0| |smt_conv::smt_conv::collate_array_vals::4..end0|))

(assert 

 (= |smt_conv::smt_conv::collate_array_vals::3..start0| |smt_conv::smt_conv::collate_array_vals::4..start0|))

(assert 

 (= __ESBMC_ptr_obj_end_0 |smt_conv::smt_conv::collate_array_vals::7..end0|))

(assert 

 (= __ESBMC_ptr_obj_start_0 |smt_conv::smt_conv::collate_array_vals::7..start0|))

(assert 

 (= |c:@F@main::$tmp::return_value$___VERIFIER_nondet_int$1?1!0&0#1| |nondet$symex::nondet18|))

(assert 

 (= |c:@F@main::$tmp::return_value$___VERIFIER_nondet_int$1?1!0&0#1| |c:ChawdharyCookGulwaniSagivYang-ESOP2008-easy1.c@269@F@main@z?1!0&0#1|))

(assert 

 (= |goto_symex::guard?0!0&0#1| 

  (ite $e1 #b1 #b0)))

(assert 

 (= |c:ChawdharyCookGulwaniSagivYang-ESOP2008-easy1.c@248@F@main@x?1!0&0#5| 

  (ite 

   (= #b1 |goto_symex::guard?0!0&0#1|) #b00000000000000000000000000000001 #b00000000000000000000000000000010)))

(assert 

 (= |goto_symex::guard?0!0&0#2| 

  (ite 

   (bvslt |c:ChawdharyCookGulwaniSagivYang-ESOP2008-easy1.c@248@F@main@x?1!0&0#5| #b00000000000000000000000000101000) #b1 #b0)))

(assert 

 (= 

  (ite $e1 #b1 #b0) |goto_symex::guard?0!0&0#3|))

(assert 

 (= |c:ChawdharyCookGulwaniSagivYang-ESOP2008-easy1.c@248@F@main@x?1!0&0#6| 

  (bvadd |c:ChawdharyCookGulwaniSagivYang-ESOP2008-easy1.c@248@F@main@x?1!0&0#5| #b00000000000000000000000000000001)))

(assert 

 (= |c:ChawdharyCookGulwaniSagivYang-ESOP2008-easy1.c@248@F@main@x?1!0&0#5| |c:ChawdharyCookGulwaniSagivYang-ESOP2008-easy1.c@248@F@main@x?1!0&0#7|))

(assert 

 (= |c:ChawdharyCookGulwaniSagivYang-ESOP2008-easy1.c@248@F@main@x?1!0&0#8| 

  (bvadd #b00000000000000000000000000000010 |c:ChawdharyCookGulwaniSagivYang-ESOP2008-easy1.c@248@F@main@x?1!0&0#7|)))

(assert 

 (= |c:ChawdharyCookGulwaniSagivYang-ESOP2008-easy1.c@248@F@main@x?1!0&0#9| 

  (ite 

   (= #b1 |goto_symex::guard?0!0&0#3|) |c:ChawdharyCookGulwaniSagivYang-ESOP2008-easy1.c@248@F@main@x?1!0&0#6| |c:ChawdharyCookGulwaniSagivYang-ESOP2008-easy1.c@248@F@main@x?1!0&0#8|)))

(assert 

 (= |goto_symex::guard?0!0&0#4| 

  (ite 

   (bvslt |c:ChawdharyCookGulwaniSagivYang-ESOP2008-easy1.c@248@F@main@x?1!0&0#9| #b00000000000000000000000000101000) #b1 #b0)))

(assert 

 (= 

  (ite $e1 #b1 #b0) |goto_symex::guard?0!0&0#5|))

(assert 

 (= |c:ChawdharyCookGulwaniSagivYang-ESOP2008-easy1.c@248@F@main@x?1!0&0#10| 

  (bvadd #b00000000000000000000000000000001 |c:ChawdharyCookGulwaniSagivYang-ESOP2008-easy1.c@248@F@main@x?1!0&0#9|)))

(assert 

 (= |c:ChawdharyCookGulwaniSagivYang-ESOP2008-easy1.c@248@F@main@x?1!0&0#9| |c:ChawdharyCookGulwaniSagivYang-ESOP2008-easy1.c@248@F@main@x?1!0&0#11|))

(assert 

 (= |c:ChawdharyCookGulwaniSagivYang-ESOP2008-easy1.c@248@F@main@x?1!0&0#12| 

  (bvadd #b00000000000000000000000000000010 |c:ChawdharyCookGulwaniSagivYang-ESOP2008-easy1.c@248@F@main@x?1!0&0#11|)))

(assert 

 (= |c:ChawdharyCookGulwaniSagivYang-ESOP2008-easy1.c@248@F@main@x?1!0&0#13| 

  (ite 

   (= #b1 |goto_symex::guard?0!0&0#5|) |c:ChawdharyCookGulwaniSagivYang-ESOP2008-easy1.c@248@F@main@x?1!0&0#10| |c:ChawdharyCookGulwaniSagivYang-ESOP2008-easy1.c@248@F@main@x?1!0&0#12|)))

(assert 

 (= |goto_symex::guard?0!0&0#6| 

  (ite 

   (bvslt |c:ChawdharyCookGulwaniSagivYang-ESOP2008-easy1.c@248@F@main@x?1!0&0#13| #b00000000000000000000000000101000) #b1 #b0)))

(assert 

 (= 

  (ite $e1 #b1 #b0) |goto_symex::guard?0!0&0#7|))

(assert 

 (= |c:ChawdharyCookGulwaniSagivYang-ESOP2008-easy1.c@248@F@main@x?1!0&0#14| 

  (bvadd #b00000000000000000000000000000001 |c:ChawdharyCookGulwaniSagivYang-ESOP2008-easy1.c@248@F@main@x?1!0&0#13|)))

(assert 

 (= |c:ChawdharyCookGulwaniSagivYang-ESOP2008-easy1.c@248@F@main@x?1!0&0#13| |c:ChawdharyCookGulwaniSagivYang-ESOP2008-easy1.c@248@F@main@x?1!0&0#15|))

(assert 

 (= |c:ChawdharyCookGulwaniSagivYang-ESOP2008-easy1.c@248@F@main@x?1!0&0#16| 

  (bvadd #b00000000000000000000000000000010 |c:ChawdharyCookGulwaniSagivYang-ESOP2008-easy1.c@248@F@main@x?1!0&0#15|)))

(assert 

 (= |c:ChawdharyCookGulwaniSagivYang-ESOP2008-easy1.c@248@F@main@x?1!0&0#17| 

  (ite 

   (= #b1 |goto_symex::guard?0!0&0#7|) |c:ChawdharyCookGulwaniSagivYang-ESOP2008-easy1.c@248@F@main@x?1!0&0#14| |c:ChawdharyCookGulwaniSagivYang-ESOP2008-easy1.c@248@F@main@x?1!0&0#16|)))

(assert 

 (= |goto_symex::guard?0!0&0#8| 

  (ite 

   (bvslt |c:ChawdharyCookGulwaniSagivYang-ESOP2008-easy1.c@248@F@main@x?1!0&0#17| #b00000000000000000000000000101000) #b1 #b0)))

(assert 

 (= 

  (ite $e1 #b1 #b0) |goto_symex::guard?0!0&0#9|))

(assert 

 (= |c:ChawdharyCookGulwaniSagivYang-ESOP2008-easy1.c@248@F@main@x?1!0&0#18| 

  (bvadd #b00000000000000000000000000000001 |c:ChawdharyCookGulwaniSagivYang-ESOP2008-easy1.c@248@F@main@x?1!0&0#17|)))

(assert 

 (= |c:ChawdharyCookGulwaniSagivYang-ESOP2008-easy1.c@248@F@main@x?1!0&0#17| |c:ChawdharyCookGulwaniSagivYang-ESOP2008-easy1.c@248@F@main@x?1!0&0#19|))

(assert 

 (= |c:ChawdharyCookGulwaniSagivYang-ESOP2008-easy1.c@248@F@main@x?1!0&0#20| 

  (bvadd #b00000000000000000000000000000010 |c:ChawdharyCookGulwaniSagivYang-ESOP2008-easy1.c@248@F@main@x?1!0&0#19|)))

(assert 

 (= |c:ChawdharyCookGulwaniSagivYang-ESOP2008-easy1.c@248@F@main@x?1!0&0#21| 

  (ite 

   (= #b1 |goto_symex::guard?0!0&0#9|) |c:ChawdharyCookGulwaniSagivYang-ESOP2008-easy1.c@248@F@main@x?1!0&0#18| |c:ChawdharyCookGulwaniSagivYang-ESOP2008-easy1.c@248@F@main@x?1!0&0#20|)))

(assert 

 (= |goto_symex::guard?0!0&0#10| 

  (ite 

   (bvslt |c:ChawdharyCookGulwaniSagivYang-ESOP2008-easy1.c@248@F@main@x?1!0&0#21| #b00000000000000000000000000101000) #b1 #b0)))

(assert 

 (= 

  (ite $e1 #b1 #b0) |goto_symex::guard?0!0&0#11|))

(assert 

 (= |c:ChawdharyCookGulwaniSagivYang-ESOP2008-easy1.c@248@F@main@x?1!0&0#22| 

  (bvadd #b00000000000000000000000000000001 |c:ChawdharyCookGulwaniSagivYang-ESOP2008-easy1.c@248@F@main@x?1!0&0#21|)))

(assert 

 (= |c:ChawdharyCookGulwaniSagivYang-ESOP2008-easy1.c@248@F@main@x?1!0&0#21| |c:ChawdharyCookGulwaniSagivYang-ESOP2008-easy1.c@248@F@main@x?1!0&0#23|))

(assert 

 (= |c:ChawdharyCookGulwaniSagivYang-ESOP2008-easy1.c@248@F@main@x?1!0&0#24| 

  (bvadd #b00000000000000000000000000000010 |c:ChawdharyCookGulwaniSagivYang-ESOP2008-easy1.c@248@F@main@x?1!0&0#23|)))

(assert 

 (= |c:ChawdharyCookGulwaniSagivYang-ESOP2008-easy1.c@248@F@main@x?1!0&0#25| 

  (ite 

   (= #b1 |goto_symex::guard?0!0&0#11|) |c:ChawdharyCookGulwaniSagivYang-ESOP2008-easy1.c@248@F@main@x?1!0&0#22| |c:ChawdharyCookGulwaniSagivYang-ESOP2008-easy1.c@248@F@main@x?1!0&0#24|)))

(assert 

 (= |goto_symex::guard?0!0&0#12| 

  (ite 

   (bvslt |c:ChawdharyCookGulwaniSagivYang-ESOP2008-easy1.c@248@F@main@x?1!0&0#25| #b00000000000000000000000000101000) #b1 #b0)))

(assert 

 (= 

  (ite $e1 #b1 #b0) |goto_symex::guard?0!0&0#13|))

(assert 

 (= |c:ChawdharyCookGulwaniSagivYang-ESOP2008-easy1.c@248@F@main@x?1!0&0#26| 

  (bvadd #b00000000000000000000000000000001 |c:ChawdharyCookGulwaniSagivYang-ESOP2008-easy1.c@248@F@main@x?1!0&0#25|)))

(assert 

 (= |c:ChawdharyCookGulwaniSagivYang-ESOP2008-easy1.c@248@F@main@x?1!0&0#25| |c:ChawdharyCookGulwaniSagivYang-ESOP2008-easy1.c@248@F@main@x?1!0&0#27|))

(assert 

 (= |c:ChawdharyCookGulwaniSagivYang-ESOP2008-easy1.c@248@F@main@x?1!0&0#28| 

  (bvadd #b00000000000000000000000000000010 |c:ChawdharyCookGulwaniSagivYang-ESOP2008-easy1.c@248@F@main@x?1!0&0#27|)))

(assert 

 (= |c:ChawdharyCookGulwaniSagivYang-ESOP2008-easy1.c@248@F@main@x?1!0&0#29| 

  (ite 

   (= #b1 |goto_symex::guard?0!0&0#13|) |c:ChawdharyCookGulwaniSagivYang-ESOP2008-easy1.c@248@F@main@x?1!0&0#26| |c:ChawdharyCookGulwaniSagivYang-ESOP2008-easy1.c@248@F@main@x?1!0&0#28|)))

(assert 

 (= |goto_symex::guard?0!0&0#14| 

  (ite 

   (bvslt |c:ChawdharyCookGulwaniSagivYang-ESOP2008-easy1.c@248@F@main@x?1!0&0#29| #b00000000000000000000000000101000) #b1 #b0)))

(assert 

 (= 

  (ite $e1 #b1 #b0) |goto_symex::guard?0!0&0#15|))

(assert 

 (= |c:ChawdharyCookGulwaniSagivYang-ESOP2008-easy1.c@248@F@main@x?1!0&0#30| 

  (bvadd #b00000000000000000000000000000001 |c:ChawdharyCookGulwaniSagivYang-ESOP2008-easy1.c@248@F@main@x?1!0&0#29|)))

(assert 

 (= |c:ChawdharyCookGulwaniSagivYang-ESOP2008-easy1.c@248@F@main@x?1!0&0#29| |c:ChawdharyCookGulwaniSagivYang-ESOP2008-easy1.c@248@F@main@x?1!0&0#31|))

(assert 

 (= |c:ChawdharyCookGulwaniSagivYang-ESOP2008-easy1.c@248@F@main@x?1!0&0#32| 

  (bvadd #b00000000000000000000000000000010 |c:ChawdharyCookGulwaniSagivYang-ESOP2008-easy1.c@248@F@main@x?1!0&0#31|)))

(assert 

 (= |c:ChawdharyCookGulwaniSagivYang-ESOP2008-easy1.c@248@F@main@x?1!0&0#33| 

  (ite 

   (= #b1 |goto_symex::guard?0!0&0#15|) |c:ChawdharyCookGulwaniSagivYang-ESOP2008-easy1.c@248@F@main@x?1!0&0#30| |c:ChawdharyCookGulwaniSagivYang-ESOP2008-easy1.c@248@F@main@x?1!0&0#32|)))

(assert 

 (= |goto_symex::guard?0!0&0#16| 

  (ite 

   (bvslt |c:ChawdharyCookGulwaniSagivYang-ESOP2008-easy1.c@248@F@main@x?1!0&0#33| #b00000000000000000000000000101000) #b1 #b0)))

(assert 

 (= 

  (ite $e1 #b1 #b0) |goto_symex::guard?0!0&0#17|))

(assert 

 (= |c:ChawdharyCookGulwaniSagivYang-ESOP2008-easy1.c@248@F@main@x?1!0&0#34| 

  (bvadd #b00000000000000000000000000000001 |c:ChawdharyCookGulwaniSagivYang-ESOP2008-easy1.c@248@F@main@x?1!0&0#33|)))

(assert 

 (= |c:ChawdharyCookGulwaniSagivYang-ESOP2008-easy1.c@248@F@main@x?1!0&0#33| |c:ChawdharyCookGulwaniSagivYang-ESOP2008-easy1.c@248@F@main@x?1!0&0#35|))

(assert 

 (= |c:ChawdharyCookGulwaniSagivYang-ESOP2008-easy1.c@248@F@main@x?1!0&0#36| 

  (bvadd #b00000000000000000000000000000010 |c:ChawdharyCookGulwaniSagivYang-ESOP2008-easy1.c@248@F@main@x?1!0&0#35|)))

(assert 

 (= |c:ChawdharyCookGulwaniSagivYang-ESOP2008-easy1.c@248@F@main@x?1!0&0#37| 

  (ite 

   (= #b1 |goto_symex::guard?0!0&0#17|) |c:ChawdharyCookGulwaniSagivYang-ESOP2008-easy1.c@248@F@main@x?1!0&0#34| |c:ChawdharyCookGulwaniSagivYang-ESOP2008-easy1.c@248@F@main@x?1!0&0#36|)))

(assert 

 (= |goto_symex::guard?0!0&0#18| 

  (ite 

   (bvslt |c:ChawdharyCookGulwaniSagivYang-ESOP2008-easy1.c@248@F@main@x?1!0&0#37| #b00000000000000000000000000101000) #b1 #b0)))

(assert 

 (= 

  (ite $e1 #b1 #b0) |goto_symex::guard?0!0&0#19|))

(assert 

 (= |c:ChawdharyCookGulwaniSagivYang-ESOP2008-easy1.c@248@F@main@x?1!0&0#38| 

  (bvadd #b00000000000000000000000000000001 |c:ChawdharyCookGulwaniSagivYang-ESOP2008-easy1.c@248@F@main@x?1!0&0#37|)))

(assert 

 (= |c:ChawdharyCookGulwaniSagivYang-ESOP2008-easy1.c@248@F@main@x?1!0&0#37| |c:ChawdharyCookGulwaniSagivYang-ESOP2008-easy1.c@248@F@main@x?1!0&0#39|))

(assert 

 (= |c:ChawdharyCookGulwaniSagivYang-ESOP2008-easy1.c@248@F@main@x?1!0&0#40| 

  (bvadd #b00000000000000000000000000000010 |c:ChawdharyCookGulwaniSagivYang-ESOP2008-easy1.c@248@F@main@x?1!0&0#39|)))

(assert 

 (= |c:ChawdharyCookGulwaniSagivYang-ESOP2008-easy1.c@248@F@main@x?1!0&0#41| 

  (ite 

   (= #b1 |goto_symex::guard?0!0&0#19|) |c:ChawdharyCookGulwaniSagivYang-ESOP2008-easy1.c@248@F@main@x?1!0&0#38| |c:ChawdharyCookGulwaniSagivYang-ESOP2008-easy1.c@248@F@main@x?1!0&0#40|)))

(assert 

 (= |goto_symex::guard?0!0&0#20| 

  (ite 

   (bvslt |c:ChawdharyCookGulwaniSagivYang-ESOP2008-easy1.c@248@F@main@x?1!0&0#41| #b00000000000000000000000000101000) #b1 #b0)))

(assert 

 (= 

  (ite $e1 #b1 #b0) |goto_symex::guard?0!0&0#21|))

(assert 

 (= |c:ChawdharyCookGulwaniSagivYang-ESOP2008-easy1.c@248@F@main@x?1!0&0#42| 

  (bvadd #b00000000000000000000000000000001 |c:ChawdharyCookGulwaniSagivYang-ESOP2008-easy1.c@248@F@main@x?1!0&0#41|)))

(assert 

 (= |c:ChawdharyCookGulwaniSagivYang-ESOP2008-easy1.c@248@F@main@x?1!0&0#41| |c:ChawdharyCookGulwaniSagivYang-ESOP2008-easy1.c@248@F@main@x?1!0&0#43|))

(assert 

 (= |c:ChawdharyCookGulwaniSagivYang-ESOP2008-easy1.c@248@F@main@x?1!0&0#44| 

  (bvadd #b00000000000000000000000000000010 |c:ChawdharyCookGulwaniSagivYang-ESOP2008-easy1.c@248@F@main@x?1!0&0#43|)))

(assert 

 (= |c:ChawdharyCookGulwaniSagivYang-ESOP2008-easy1.c@248@F@main@x?1!0&0#45| 

  (ite 

   (= #b1 |goto_symex::guard?0!0&0#21|) |c:ChawdharyCookGulwaniSagivYang-ESOP2008-easy1.c@248@F@main@x?1!0&0#42| |c:ChawdharyCookGulwaniSagivYang-ESOP2008-easy1.c@248@F@main@x?1!0&0#44|)))

(assert 

 (= |goto_symex::guard?0!0&0#22| 

  (ite 

   (bvslt |c:ChawdharyCookGulwaniSagivYang-ESOP2008-easy1.c@248@F@main@x?1!0&0#45| #b00000000000000000000000000101000) #b1 #b0)))

(assert 

 (= 

  (ite $e1 #b1 #b0) |goto_symex::guard?0!0&0#23|))

(assert 

 (= |c:ChawdharyCookGulwaniSagivYang-ESOP2008-easy1.c@248@F@main@x?1!0&0#46| 

  (bvadd #b00000000000000000000000000000001 |c:ChawdharyCookGulwaniSagivYang-ESOP2008-easy1.c@248@F@main@x?1!0&0#45|)))

(assert 

 (= |c:ChawdharyCookGulwaniSagivYang-ESOP2008-easy1.c@248@F@main@x?1!0&0#45| |c:ChawdharyCookGulwaniSagivYang-ESOP2008-easy1.c@248@F@main@x?1!0&0#47|))

(assert 

 (= |c:ChawdharyCookGulwaniSagivYang-ESOP2008-easy1.c@248@F@main@x?1!0&0#48| 

  (bvadd #b00000000000000000000000000000010 |c:ChawdharyCookGulwaniSagivYang-ESOP2008-easy1.c@248@F@main@x?1!0&0#47|)))

(assert 

 (= |c:ChawdharyCookGulwaniSagivYang-ESOP2008-easy1.c@248@F@main@x?1!0&0#49| 

  (ite 

   (= #b1 |goto_symex::guard?0!0&0#23|) |c:ChawdharyCookGulwaniSagivYang-ESOP2008-easy1.c@248@F@main@x?1!0&0#46| |c:ChawdharyCookGulwaniSagivYang-ESOP2008-easy1.c@248@F@main@x?1!0&0#48|)))

(assert 

 (= |goto_symex::guard?0!0&0#24| 

  (ite 

   (bvslt |c:ChawdharyCookGulwaniSagivYang-ESOP2008-easy1.c@248@F@main@x?1!0&0#49| #b00000000000000000000000000101000) #b1 #b0)))

(assert 

 (= 

  (ite $e1 #b1 #b0) |goto_symex::guard?0!0&0#25|))

(assert 

 (= |c:ChawdharyCookGulwaniSagivYang-ESOP2008-easy1.c@248@F@main@x?1!0&0#50| 

  (bvadd #b00000000000000000000000000000001 |c:ChawdharyCookGulwaniSagivYang-ESOP2008-easy1.c@248@F@main@x?1!0&0#49|)))

(assert 

 (= |c:ChawdharyCookGulwaniSagivYang-ESOP2008-easy1.c@248@F@main@x?1!0&0#49| |c:ChawdharyCookGulwaniSagivYang-ESOP2008-easy1.c@248@F@main@x?1!0&0#51|))

(assert 

 (= |c:ChawdharyCookGulwaniSagivYang-ESOP2008-easy1.c@248@F@main@x?1!0&0#52| 

  (bvadd #b00000000000000000000000000000010 |c:ChawdharyCookGulwaniSagivYang-ESOP2008-easy1.c@248@F@main@x?1!0&0#51|)))

(assert 

 (= |c:ChawdharyCookGulwaniSagivYang-ESOP2008-easy1.c@248@F@main@x?1!0&0#53| 

  (ite 

   (= #b1 |goto_symex::guard?0!0&0#25|) |c:ChawdharyCookGulwaniSagivYang-ESOP2008-easy1.c@248@F@main@x?1!0&0#50| |c:ChawdharyCookGulwaniSagivYang-ESOP2008-easy1.c@248@F@main@x?1!0&0#52|)))

(assert 

 (= |goto_symex::guard?0!0&0#26| 

  (ite 

   (bvslt |c:ChawdharyCookGulwaniSagivYang-ESOP2008-easy1.c@248@F@main@x?1!0&0#53| #b00000000000000000000000000101000) #b1 #b0)))

(assert 

 (= 

  (ite $e1 #b1 #b0) |goto_symex::guard?0!0&0#27|))

(assert 

 (= |c:ChawdharyCookGulwaniSagivYang-ESOP2008-easy1.c@248@F@main@x?1!0&0#54| 

  (bvadd #b00000000000000000000000000000001 |c:ChawdharyCookGulwaniSagivYang-ESOP2008-easy1.c@248@F@main@x?1!0&0#53|)))

(assert 

 (= |c:ChawdharyCookGulwaniSagivYang-ESOP2008-easy1.c@248@F@main@x?1!0&0#53| |c:ChawdharyCookGulwaniSagivYang-ESOP2008-easy1.c@248@F@main@x?1!0&0#55|))

(assert 

 (= |c:ChawdharyCookGulwaniSagivYang-ESOP2008-easy1.c@248@F@main@x?1!0&0#56| 

  (bvadd #b00000000000000000000000000000010 |c:ChawdharyCookGulwaniSagivYang-ESOP2008-easy1.c@248@F@main@x?1!0&0#55|)))

(assert 

 (= |c:ChawdharyCookGulwaniSagivYang-ESOP2008-easy1.c@248@F@main@x?1!0&0#57| 

  (ite 

   (= #b1 |goto_symex::guard?0!0&0#27|) |c:ChawdharyCookGulwaniSagivYang-ESOP2008-easy1.c@248@F@main@x?1!0&0#54| |c:ChawdharyCookGulwaniSagivYang-ESOP2008-easy1.c@248@F@main@x?1!0&0#56|)))

(assert 

 (= |goto_symex::guard?0!0&0#28| 

  (ite 

   (bvslt |c:ChawdharyCookGulwaniSagivYang-ESOP2008-easy1.c@248@F@main@x?1!0&0#57| #b00000000000000000000000000101000) #b1 #b0)))

(assert 

 (= 

  (ite $e1 #b1 #b0) |goto_symex::guard?0!0&0#29|))

(assert 

 (= |c:ChawdharyCookGulwaniSagivYang-ESOP2008-easy1.c@248@F@main@x?1!0&0#58| 

  (bvadd #b00000000000000000000000000000001 |c:ChawdharyCookGulwaniSagivYang-ESOP2008-easy1.c@248@F@main@x?1!0&0#57|)))

(assert 

 (= |c:ChawdharyCookGulwaniSagivYang-ESOP2008-easy1.c@248@F@main@x?1!0&0#57| |c:ChawdharyCookGulwaniSagivYang-ESOP2008-easy1.c@248@F@main@x?1!0&0#59|))

(assert 

 (= |c:ChawdharyCookGulwaniSagivYang-ESOP2008-easy1.c@248@F@main@x?1!0&0#60| 

  (bvadd #b00000000000000000000000000000010 |c:ChawdharyCookGulwaniSagivYang-ESOP2008-easy1.c@248@F@main@x?1!0&0#59|)))

(assert 

 (= |c:ChawdharyCookGulwaniSagivYang-ESOP2008-easy1.c@248@F@main@x?1!0&0#61| 

  (ite 

   (= #b1 |goto_symex::guard?0!0&0#29|) |c:ChawdharyCookGulwaniSagivYang-ESOP2008-easy1.c@248@F@main@x?1!0&0#58| |c:ChawdharyCookGulwaniSagivYang-ESOP2008-easy1.c@248@F@main@x?1!0&0#60|)))

(assert 

 (= |goto_symex::guard?0!0&0#30| 

  (ite 

   (bvslt |c:ChawdharyCookGulwaniSagivYang-ESOP2008-easy1.c@248@F@main@x?1!0&0#61| #b00000000000000000000000000101000) #b1 #b0)))

(assert 

 (= 

  (ite $e1 #b1 #b0) |goto_symex::guard?0!0&0#31|))

(assert 

 (= |c:ChawdharyCookGulwaniSagivYang-ESOP2008-easy1.c@248@F@main@x?1!0&0#62| 

  (bvadd #b00000000000000000000000000000001 |c:ChawdharyCookGulwaniSagivYang-ESOP2008-easy1.c@248@F@main@x?1!0&0#61|)))

(assert 

 (= |c:ChawdharyCookGulwaniSagivYang-ESOP2008-easy1.c@248@F@main@x?1!0&0#61| |c:ChawdharyCookGulwaniSagivYang-ESOP2008-easy1.c@248@F@main@x?1!0&0#63|))

(assert 

 (= |c:ChawdharyCookGulwaniSagivYang-ESOP2008-easy1.c@248@F@main@x?1!0&0#64| 

  (bvadd #b00000000000000000000000000000010 |c:ChawdharyCookGulwaniSagivYang-ESOP2008-easy1.c@248@F@main@x?1!0&0#63|)))

(assert 

 (= |c:ChawdharyCookGulwaniSagivYang-ESOP2008-easy1.c@248@F@main@x?1!0&0#65| 

  (ite 

   (= #b1 |goto_symex::guard?0!0&0#31|) |c:ChawdharyCookGulwaniSagivYang-ESOP2008-easy1.c@248@F@main@x?1!0&0#62| |c:ChawdharyCookGulwaniSagivYang-ESOP2008-easy1.c@248@F@main@x?1!0&0#64|)))

(assert 

 (= |goto_symex::guard?0!0&0#32| 

  (ite 

   (bvslt |c:ChawdharyCookGulwaniSagivYang-ESOP2008-easy1.c@248@F@main@x?1!0&0#65| #b00000000000000000000000000101000) #b1 #b0)))

(assert 

 (= 

  (ite $e1 #b1 #b0) |goto_symex::guard?0!0&0#33|))

(assert 

 (= |c:ChawdharyCookGulwaniSagivYang-ESOP2008-easy1.c@248@F@main@x?1!0&0#66| 

  (bvadd #b00000000000000000000000000000001 |c:ChawdharyCookGulwaniSagivYang-ESOP2008-easy1.c@248@F@main@x?1!0&0#65|)))

(assert 

 (= |c:ChawdharyCookGulwaniSagivYang-ESOP2008-easy1.c@248@F@main@x?1!0&0#65| |c:ChawdharyCookGulwaniSagivYang-ESOP2008-easy1.c@248@F@main@x?1!0&0#67|))

(assert 

 (= |c:ChawdharyCookGulwaniSagivYang-ESOP2008-easy1.c@248@F@main@x?1!0&0#68| 

  (bvadd #b00000000000000000000000000000010 |c:ChawdharyCookGulwaniSagivYang-ESOP2008-easy1.c@248@F@main@x?1!0&0#67|)))

(assert 

 (= |c:ChawdharyCookGulwaniSagivYang-ESOP2008-easy1.c@248@F@main@x?1!0&0#69| 

  (ite 

   (= #b1 |goto_symex::guard?0!0&0#33|) |c:ChawdharyCookGulwaniSagivYang-ESOP2008-easy1.c@248@F@main@x?1!0&0#66| |c:ChawdharyCookGulwaniSagivYang-ESOP2008-easy1.c@248@F@main@x?1!0&0#68|)))

(assert 

 (= |goto_symex::guard?0!0&0#34| 

  (ite 

   (bvslt |c:ChawdharyCookGulwaniSagivYang-ESOP2008-easy1.c@248@F@main@x?1!0&0#69| #b00000000000000000000000000101000) #b1 #b0)))

(assert 

 (= 

  (ite $e1 #b1 #b0) |goto_symex::guard?0!0&0#35|))

(assert 

 (= |c:ChawdharyCookGulwaniSagivYang-ESOP2008-easy1.c@248@F@main@x?1!0&0#70| 

  (bvadd #b00000000000000000000000000000001 |c:ChawdharyCookGulwaniSagivYang-ESOP2008-easy1.c@248@F@main@x?1!0&0#69|)))

(assert 

 (= |c:ChawdharyCookGulwaniSagivYang-ESOP2008-easy1.c@248@F@main@x?1!0&0#69| |c:ChawdharyCookGulwaniSagivYang-ESOP2008-easy1.c@248@F@main@x?1!0&0#71|))

(assert 

 (= |c:ChawdharyCookGulwaniSagivYang-ESOP2008-easy1.c@248@F@main@x?1!0&0#72| 

  (bvadd #b00000000000000000000000000000010 |c:ChawdharyCookGulwaniSagivYang-ESOP2008-easy1.c@248@F@main@x?1!0&0#71|)))

(assert 

 (= |c:ChawdharyCookGulwaniSagivYang-ESOP2008-easy1.c@248@F@main@x?1!0&0#73| 

  (ite 

   (= #b1 |goto_symex::guard?0!0&0#35|) |c:ChawdharyCookGulwaniSagivYang-ESOP2008-easy1.c@248@F@main@x?1!0&0#70| |c:ChawdharyCookGulwaniSagivYang-ESOP2008-easy1.c@248@F@main@x?1!0&0#72|)))

(assert 

 (= |goto_symex::guard?0!0&0#36| 

  (ite 

   (bvslt |c:ChawdharyCookGulwaniSagivYang-ESOP2008-easy1.c@248@F@main@x?1!0&0#73| #b00000000000000000000000000101000) #b1 #b0)))

(assert (= |execution_statet::guard_exec?0!0| #b1))

(assert (= |goto_symex::guard?0!0&0#36| #b1))

(assert (= |goto_symex::guard?0!0&0#34| #b1))

(assert (= |goto_symex::guard?0!0&0#32| #b1))

(assert (= |goto_symex::guard?0!0&0#30| #b1))

(assert (= |goto_symex::guard?0!0&0#28| #b1))

(assert (= |goto_symex::guard?0!0&0#26| #b1))

(assert (= |goto_symex::guard?0!0&0#24| #b1))

(assert (= |goto_symex::guard?0!0&0#22| #b1))

(assert (= |goto_symex::guard?0!0&0#20| #b1))

(assert (= |goto_symex::guard?0!0&0#18| #b1))

(assert (= |goto_symex::guard?0!0&0#16| #b1))

(assert (= |goto_symex::guard?0!0&0#14| #b1))

(assert (= |goto_symex::guard?0!0&0#12| #b1))

(assert (= |goto_symex::guard?0!0&0#10| #b1))

(assert (= |goto_symex::guard?0!0&0#8| #b1))

(assert (= |goto_symex::guard?0!0&0#6| #b1))

(assert (= |goto_symex::guard?0!0&0#4| #b1))

(assert (= |goto_symex::guard?0!0&0#2| #b1))

(check-sat)

(exit)
